
Gurobi 11.0.0 (win64) logging started Wed May 22 15:41:54 2024

Set parameter LogFile to value "./Results/StripPacking-ManyRuns/Logs/SUspb-111-StripPacking-15-2.log"
Set parameter TimeLimit to value 3600
Set parameter Cuts to value 1
Set parameter Presolve to value 1
Set parameter Heuristics to value 1
Set parameter LPWarmStart to value 2
Gurobi Optimizer version 11.0.0 build v11.0.0rc2 (win64 - Windows 10.0 (19045.2))

CPU model: Intel(R) Core(TM) i9-10980XE CPU @ 3.00GHz, instruction set [SSE2|AVX|AVX2|AVX512]
Thread count: 18 physical cores, 36 logical processors, using up to 18 threads

Optimize a model with 6840 rows, 451 columns and 19770 nonzeros
Model fingerprint: 0xc164fd0e
Variable types: 31 continuous, 420 integer (420 binary)
Coefficient statistics:
  Matrix range     [1e+00, 1e+04]
  Objective range  [1e+00, 1e+00]
  Bounds range     [1e+00, 1e+04]
  RHS range        [1e+00, 1e+04]
Using branch priorities.

Warning: Completing partial solution with 420 unfixed non-continuous variables out of 420
User MIP start produced solution with objective 72 (0.01s)
User MIP start produced solution with objective 72 (0.01s)
Loaded user MIP start with objective 72

Presolve removed 210 rows and 0 columns
Presolve time: 0.03s
Presolved: 6630 rows, 451 columns, 19934 nonzeros
Variable types: 31 continuous, 420 integer (420 binary)

Root relaxation: objective 3.700000e+01, 500 iterations, 0.03 seconds (0.05 work units)

    Nodes    |    Current Node    |     Objective Bounds      |     Work
 Expl Unexpl |  Obj  Depth IntInf | Incumbent    BestBd   Gap | It/Node Time

     0     0   37.00000    0   25   72.00000   37.00000  48.6%     -    0s
H    0     0                      68.0000000   37.00000  45.6%     -    0s
H    0     0                      61.0000000   37.00000  39.3%     -    1s
     0     0   37.00000    0   71   61.00000   37.00000  39.3%     -    1s
     0     0   37.00000    0   71   61.00000   37.00000  39.3%     -    1s
H    0     0                      60.0000000   37.00000  38.3%     -    1s
     0     0   37.00000    0   29   60.00000   37.00000  38.3%     -    1s
     0     0   37.00000    0   57   60.00000   37.00000  38.3%     -    1s
H    0     0                      59.0000000   37.00000  37.3%     -    2s
     0     0   37.00000    0   39   59.00000   37.00000  37.3%     -    2s
H    0     0                      58.0000000   37.00000  36.2%     -    2s
     0     0   37.00000    0   14   58.00000   37.00000  36.2%     -    2s
     0     0   37.00000    0   16   58.00000   37.00000  36.2%     -    2s
     0     0   37.00000    0   27   58.00000   37.00000  36.2%     -    2s
     0     0   37.00000    0   26   58.00000   37.00000  36.2%     -    2s
     0     0   37.00000    0   21   58.00000   37.00000  36.2%     -    3s
     0     0   37.00000    0   34   58.00000   37.00000  36.2%     -    3s
H    0     0                      55.0000000   37.00000  32.7%     -    3s
     0     0   37.00000    0   20   55.00000   37.00000  32.7%     -    3s
     0     0   37.00000    0   37   55.00000   37.00000  32.7%     -    3s
H    0     0                      53.0000000   37.00000  30.2%     -    3s
     0     0   37.00000    0   16   53.00000   37.00000  30.2%     -    3s
     0     0   37.00000    0   39   53.00000   37.00000  30.2%     -    3s
     0     0   37.00000    0   33   53.00000   37.00000  30.2%     -    4s
     0     0   37.00000    0   33   53.00000   37.00000  30.2%     -    4s
     0     2   37.00000    0   31   53.00000   37.00000  30.2%     -    4s
    31    50   37.00000    5  104   53.00000   37.00000  30.2%  53.5    5s
H  113   122                      53.0000000   37.00000  30.2%  38.9    5s
H  158   175                      52.0000000   37.00000  28.8%  55.0    7s
   361   304   37.00000   19   59   52.00000   37.00000  28.8%  48.1   16s
H  375   304                      51.0000000   37.00000  27.5%  47.8   16s
H  377   304                      50.0000000   37.00000  26.0%  47.8   16s
   385   455   39.16867   20   67   50.00000   37.00000  26.0%  50.0   21s
   751   634   47.00000   14   72   50.00000   37.00000  26.0%  44.8   27s
  1154   803   49.00000   26   56   50.00000   37.00000  26.0%  46.4   47s
  1700   815   46.00000   19   68   50.00000   37.00000  26.0%  41.2   56s
  1724  1315   46.00000   20   62   50.00000   37.00000  26.0%  41.5   62s
H 2061  1315                      48.0000000   37.00000  22.9%  40.9   62s
  2968  1094     cutoff   25        48.00000   37.00000  22.9%  39.5   89s
  3010  1705   37.31270   16   82   48.00000   37.00000  22.9%  39.3  100s
  5075  1714   37.00000    8   54   48.00000   37.00000  22.9%  35.6  105s
  5346  1855 infeasible   20        48.00000   37.00000  22.9%  41.1  112s
  5502  1858   39.00000   24   82   48.00000   37.00000  22.9%  42.9  117s
  5743  1838   37.03183   21  104   48.00000   37.00000  22.9%  45.2  137s
H 6092  1729                      48.0000000   37.00000  22.9%  48.1  139s
  6131  1754 infeasible   28        48.00000   37.00000  22.9%  48.3  141s
  6349  1781 infeasible   28        48.00000   37.00000  22.9%  49.8  145s
* 6401  1682              25      47.0000000   37.00000  21.3%  50.0  145s
  6755  1588   43.00000   32   85   47.00000   37.00000  21.3%  52.1  152s
  6967  1587 infeasible   27        47.00000   37.00000  21.3%  54.1  155s
H 7427  1356                      47.0000000   37.00000  21.3%  56.9  155s
  7508  1339 infeasible   27        47.00000   37.00000  21.3%  57.8  167s
  7546  1381 infeasible   28        47.00000   37.00000  21.3%  58.1  173s
  8026  1307 infeasible   22        47.00000   37.00000  21.3%  61.0  178s
  8590  1165   37.00000   20   72   47.00000   37.00000  21.3%  63.4  185s
  9620   983   37.00000   22   43   47.00000   37.00000  21.3%  67.1  203s
 10193  1137   46.00000   31   18   47.00000   37.00000  21.3%  69.8  209s
 11549  1096 infeasible   26        47.00000   37.00000  21.3%  74.9  216s
 11686  1118   37.00000   26   68   47.00000   37.00000  21.3%  75.4  221s
 11890  1132 infeasible   28        47.00000   37.00000  21.3%  76.0  226s
 13210  1183 infeasible   23        47.00000   37.00000  21.3%  79.2  234s
 13609  1274 infeasible   31        47.00000   37.00000  21.3%  80.7  242s
 14327  1284 infeasible   32        47.00000   37.00000  21.3%  81.5  249s
 14703  1302   43.00000   24   65   47.00000   37.00000  21.3%  82.5  256s
 15553  1349     cutoff   25        47.00000   37.00000  21.3%  83.8  272s
 16018  1362 infeasible   25        47.00000   37.00000  21.3%  84.2  277s
 17172  1435 infeasible   26        47.00000   37.00000  21.3%  85.1  288s
 17936  1447   46.00000   28   67   47.00000   37.00000  21.3%  85.8  302s
 18018  1485 infeasible   29        47.00000   37.00000  21.3%  86.0  317s
 18801  1518   37.00000   23   66   47.00000   37.00000  21.3%  87.1  325s
 20147  1521   43.00000   23   50   47.00000   37.00000  21.3%  88.8  333s
 20199  1523 infeasible   24        47.00000   37.00000  21.3%  89.0  341s
 20240  1539   37.00000   24   60   47.00000   37.00000  21.3%  89.0  347s
 20527  1543   46.00000   25   76   47.00000   37.00000  21.3%  89.4  356s
 20565  1530 infeasible   25        47.00000   37.00000  21.3%  89.4  365s
 21156  1516   37.00000   23   61   47.00000   37.00000  21.3%  90.6  374s
 21491  1437   46.00000   30   63   47.00000   37.00000  21.3%  90.5  380s
 22951  1441   43.00000   23   79   47.00000   37.00000  21.3%  90.2  390s
 22983  1420   46.00000   24   51   47.00000   37.00000  21.3%  90.2  395s
 23253  1206 infeasible   25        47.00000   37.00000  21.3%  90.0  405s
 25529  1209 infeasible   26        47.00000   37.27778  20.7%  87.6  418s
 25562  1133   43.00000   24   66   47.00000   39.00000  17.0%  87.6  425s
 27066  1124 infeasible   26        47.00000   43.00000  8.51%  86.3  446s
 27537   998   43.00000   25   39   47.00000   43.00000  8.51%  85.9  453s
 28738   990   43.00000   27   45   47.00000   43.00000  8.51%  84.5  460s
 28848   791   43.00000   28   79   47.00000   43.00000  8.51%  84.4  471s
 30988   736     cutoff   25        47.00000   43.00000  8.51%  82.3  479s
 32510   729 infeasible   29        47.00000   43.00000  8.51%  80.7  494s
 32552   744 infeasible   23        47.00000   43.00000  8.51%  80.6  503s
 33054   296 infeasible   25        47.00000   43.00000  8.51%  80.1  538s
 37807   306   46.00000   29   42   47.00000   43.00000  8.51%  75.8  560s
 37859    70 infeasible   30        47.00000   43.00000  8.51%  75.8  570s
 39664    85   45.00000   31   22   47.00000   43.00000  8.51%  74.4  608s
 39685    16   45.00000   32   42   47.00000   43.00000  8.51%  74.4  611s
 40323     7   45.00000   41   62   47.00000   45.00000  4.26%  74.0  615s

Cutting planes:
  Learned: 1557
  Gomory: 6
  Lift-and-project: 25
  Cover: 96
  Implied bound: 11
  MIR: 160
  StrongCG: 5
  Flow cover: 312
  Zero half: 1
  RLT: 147
  Relax-and-lift: 121

Explored 40531 nodes (3004975 simplex iterations) in 615.42 seconds (338.95 work units)
Thread count was 18 (of 36 available processors)

Solution count 10: 47 47 47 ... 53

Optimal solution found (tolerance 1.00e-04)
Best objective 4.700000000000e+01, best bound 4.700000000000e+01, gap 0.0000%

Gurobi 11.0.0 (win64) logging started Tue Jun 18 17:11:15 2024

Set parameter LogFile to value "./Results/StripPacking-ManyRuns/Logs/SUspb-111-StripPacking-15-2.log"
Set parameter TimeLimit to value 3600
Set parameter Cuts to value 1
Set parameter Presolve to value 1
Set parameter Heuristics to value 1
Set parameter LPWarmStart to value 2
Gurobi Optimizer version 11.0.0 build v11.0.0rc2 (win64 - Windows 10.0 (19045.2))

CPU model: Intel(R) Core(TM) i9-10980XE CPU @ 3.00GHz, instruction set [SSE2|AVX|AVX2|AVX512]
Thread count: 18 physical cores, 36 logical processors, using up to 18 threads

Optimize a model with 6840 rows, 451 columns and 19770 nonzeros
Model fingerprint: 0x32f09344
Variable types: 31 continuous, 420 integer (420 binary)
Coefficient statistics:
  Matrix range     [1e+00, 1e+04]
  Objective range  [1e+00, 1e+00]
  Bounds range     [1e+00, 1e+04]
  RHS range        [1e+00, 1e+04]
Using branch priorities.

Warning: Completing partial solution with 420 unfixed non-continuous variables out of 420
User MIP start produced solution with objective 78.1 (0.03s)
Loaded user MIP start with objective 78.1

Presolve removed 210 rows and 0 columns
Presolve time: 0.03s
Presolved: 6630 rows, 451 columns, 19934 nonzeros
Variable types: 31 continuous, 420 integer (420 binary)

Root relaxation: objective 4.500000e+01, 318 iterations, 0.03 seconds (0.03 work units)

    Nodes    |    Current Node    |     Objective Bounds      |     Work
 Expl Unexpl |  Obj  Depth IntInf | Incumbent    BestBd   Gap | It/Node Time

     0     0   45.00000    0    6   78.10000   45.00000  42.4%     -    0s
H    0     0                      68.0000000   45.00000  33.8%     -    0s
H    0     0                      62.0000000   45.00000  27.4%     -    0s
     0     0   45.00000    0   38   62.00000   45.00000  27.4%     -    1s
H    0     0                      58.0000000   45.00000  22.4%     -    1s
H    0     0                      55.0000000   45.00000  18.2%     -    1s
     0     0   45.00000    0   37   55.00000   45.00000  18.2%     -    1s
     0     0   45.00000    0   18   55.00000   45.00000  18.2%     -    2s
     0     0   45.00000    0   16   55.00000   45.00000  18.2%     -    2s
     0     0   45.00000    0   10   55.00000   45.00000  18.2%     -    2s
     0     0   45.00000    0   10   55.00000   45.00000  18.2%     -    2s
H    0     0                      54.0000000   45.00000  16.7%     -    3s
     0     0   45.00000    0    4   54.00000   45.00000  16.7%     -    3s
     0     0   45.00000    0   18   54.00000   45.00000  16.7%     -    3s
     0     0   45.00000    0   18   54.00000   45.00000  16.7%     -    3s
     0     0   45.00000    0   18   54.00000   45.00000  16.7%     -    3s
     0     0   45.00000    0   14   54.00000   45.00000  16.7%     -    4s
     0     0   45.00000    0   11   54.00000   45.00000  16.7%     -    4s
     0     0   45.00000    0    9   54.00000   45.00000  16.7%     -    5s
     0     0   45.00000    0   24   54.00000   45.00000  16.7%     -    6s
     0     0   45.00000    0   31   54.00000   45.00000  16.7%     -    6s
     0     0   45.00000    0   12   54.00000   45.00000  16.7%     -    6s
H    0     0                      53.0000000   45.00000  15.1%     -    6s
     0     0   45.00000    0   16   53.00000   45.00000  15.1%     -    6s
     0     0   45.00000    0   17   53.00000   45.00000  15.1%     -    6s
     0     0   45.00000    0   16   53.00000   45.00000  15.1%     -    6s
     0     0   45.00000    0   15   53.00000   45.00000  15.1%     -    6s
     0     0   45.00000    0   24   53.00000   45.00000  15.1%     -    6s
     0     0   45.00000    0    8   53.00000   45.00000  15.1%     -    7s
     0     0   45.00000    0    5   53.00000   45.00000  15.1%     -    7s
     0     0   45.00000    0    8   53.00000   45.00000  15.1%     -    7s
     0     0   45.00000    0    8   53.00000   45.00000  15.1%     -    7s
     0     0   45.00000    0   10   53.00000   45.00000  15.1%     -    7s
     0     0   45.00000    0    5   53.00000   45.00000  15.1%     -    8s
     0     2   45.00000    0    5   53.00000   45.00000  15.1%     -    8s
    93   122   45.00000    9   35   53.00000   45.00000  15.1%  23.6   10s
H  110   122                      52.0000000   45.00000  13.5%  25.1   10s
   368   420   45.00000   22    8   52.00000   45.00000  13.5%  38.4   16s
   443   746   45.00000   27   17   52.00000   45.00000  13.5%  36.0   21s
H  655   746                      51.0000000   45.00000  11.8%  35.5   21s
   914  1778   45.00000   21    9   51.00000   45.00000  11.8%  32.3   35s
  3477  1818     cutoff   52        51.00000   45.00000  11.8%  24.7   40s
H 3567  1777                      50.0000000   45.00000  10.0%  24.8   40s
  3576  2003   45.00000   26   14   50.00000   45.00000  10.0%  24.8   45s
H 4122  2003                      50.0000000   45.00000  10.0%  24.2   45s
  4235  2010   45.00000   30   14   50.00000   45.00000  10.0%  24.2   50s
  4477  2189   45.00000   27   30   50.00000   45.00000  10.0%  27.1   59s
H 4491  2082                      49.0000000   45.00000  8.16%  27.3   59s
  4495  2298   45.00000   27   23   49.00000   45.00000  8.16%  27.4   60s
  5103  2413   45.00000   28   56   49.00000   45.00000  8.16%  28.9   74s
  5643  2341 infeasible   31        49.00000   45.00000  8.16%  30.5   81s
  6049  2315   46.00000   43   22   49.00000   45.00000  8.16%  31.2   96s
  6468  2741   45.00000   43   27   49.00000   45.00000  8.16%  32.1  103s
  9325  1796 infeasible   46        49.00000   45.00000  8.16%  35.2  111s
  9490  2018   45.00000   45   44   49.00000   45.00000  8.16%  35.9  120s
 10977  2128 infeasible   48        49.00000   45.00000  8.16%  37.2  135s
 13174  2128 infeasible   49        49.00000   45.00000  8.16%  39.6  175s
 13209  2420 infeasible   50        49.00000   45.00000  8.16%  39.6  186s
 15517  2486   45.00000   46   64   49.00000   45.00000  8.16%  40.6  197s
 15736  2805   45.00000   47   68   49.00000   45.00000  8.16%  40.7  204s
 17710  2873 infeasible   48        49.00000   45.00000  8.16%  41.8  219s
 18450  2880 infeasible   48        49.00000   45.00000  8.16%  42.1  233s
 18495  2913   46.00000   48   76   49.00000   45.00000  8.16%  42.1  239s
 18601  3014 infeasible   49        49.00000   45.00000  8.16%  42.2  252s
 19314  3109   45.00000   48   39   49.00000   45.00000  8.16%  42.2  263s
 19810  3204 infeasible   54        49.00000   45.00000  8.16%  42.4  280s
 20995  3253 infeasible   55        49.00000   45.00000  8.16%  42.2  296s
 21393  3718   45.00000   56   50   49.00000   45.00000  8.16%  42.2  314s
 22198  3718   47.00000   39   29   49.00000   45.00000  8.16%  42.3  315s
 24549  4052   45.00000   46   46   49.00000   45.00000  8.16%  42.7  376s
 28327  4059   45.00000   46   25   49.00000   45.00000  8.16%  44.0  386s
 28358  4114 infeasible   47        49.00000   45.00000  8.16%  44.1  417s
 28870  4145   45.00000   51   25   49.00000   45.00000  8.16%  44.3  425s
 29055  4164 infeasible   56        49.00000   45.00000  8.16%  44.4  457s
 29325  4426 infeasible   57        49.00000   45.00000  8.16%  44.4  498s
 33144  4479 infeasible   44        49.00000   45.00000  8.16%  44.5  532s
 33447  4669   45.00000   44   41   49.00000   45.00000  8.16%  44.5  551s
 35643  4701   45.00000   29   30   49.00000   45.00000  8.16%  44.3  579s
 35803  4990   45.00000   30   29   49.00000   45.00000  8.16%  44.5  609s
 37129  4990 infeasible   43        49.00000   45.00000  8.16%  44.3  610s
 39370  5060   45.00000   45   27   49.00000   45.00000  8.16%  44.4  641s
 39978  5077 infeasible   46        49.00000   45.00000  8.16%  44.6  659s
 40089  5359   47.00000   35   24   49.00000   45.00000  8.16%  44.6  708s
 43595  5437 infeasible   46        49.00000   45.00000  8.16%  45.1  727s
 44895  5576   45.00000   48   48   49.00000   45.00000  8.16%  44.8  782s
 47037  5580   45.00000   33   60   49.00000   45.00000  8.16%  44.9  786s
 47044  5584   47.00000   43   15   49.00000   45.00000  8.16%  44.9  790s
 47105  5644   45.00000   33   23   49.00000   45.00000  8.16%  45.2  795s
 47141  5668   45.00000   34   29   49.00000   45.00000  8.16%  45.2  810s
 47211  5714   45.00000   36   13   49.00000   45.00000  8.16%  45.2  821s
 47391  5813   45.00000   47   31   49.00000   45.00000  8.16%  45.3  836s
 48032  6219   45.00000   45   47   49.00000   45.00000  8.16%  45.3  844s
 48717  6593   47.00000   46   14   49.00000   45.00000  8.16%  45.3  851s
 50523  5999   45.00000   42   33   49.00000   45.00000  8.16%  45.5  860s
 50551  6644   45.00000   43   28   49.00000   45.00000  8.16%  45.5  869s
 52991  5840   45.00000   38   13   49.00000   45.00000  8.16%  46.2  877s
 53182  6144   45.00000   39    9   49.00000   45.00000  8.16%  46.2  883s
 54514  5712 infeasible   53        49.00000   45.00000  8.16%  46.6  899s
 54538  6040   45.00000   53   11   49.00000   45.00000  8.16%  46.5  906s
 56371  5773   45.00000   58   47   49.00000   45.00000  8.16%  46.7  912s
 58082  5206   45.00000   51   10   49.00000   45.00000  8.16%  47.1  923s
 58114  5219   45.00000   52   45   49.00000   45.00000  8.16%  47.1  927s
 58264  5329 infeasible   55        49.00000   45.00000  8.16%  47.1  931s
 58972  5095 infeasible   58        49.00000   45.00000  8.16%  47.1  936s
 59086  5569   45.00000   64   41   49.00000   45.00000  8.16%  47.1  948s
 61881  4784   45.00000   53   22   49.00000   45.00000  8.16%  47.2  962s
 62922  4827 infeasible   58        49.00000   45.00000  8.16%  47.4  988s
 66192  4523 infeasible   68        49.00000   45.00000  8.16%  48.1 1021s
 66228  4713 infeasible   69        49.00000   45.00000  8.16%  48.2 1030s
 67405  4722 infeasible   58        49.00000   45.00000  8.16%  48.3 1046s
 67432  4962 infeasible   60        49.00000   45.00000  8.16%  48.3 1059s
 69470  5347   45.00000   52   61   49.00000   45.00000  8.16%  48.6 1107s
 73201  5373 infeasible   62        49.00000   45.00000  8.16%  49.4 1138s
 73615  5419 infeasible   63        49.00000   45.00000  8.16%  49.5 1148s
 73795  5443   45.00000   49   80   49.00000   45.00000  8.16%  49.5 1162s
 74049  5800   45.00000   50   80   49.00000   45.00000  8.16%  49.6 1195s
 77650  5881 infeasible   50        49.00000   45.00000  8.16%  49.8 1234s
 78503  6102   45.00000   51   69   49.00000   45.00000  8.16%  49.8 1270s
 80917  6141 infeasible   68        49.00000   45.00000  8.16%  49.9 1290s
 81620  6380 infeasible   53        49.00000   45.00000  8.16%  50.0 1353s
 85114  6648   45.00000   57   76   49.00000   45.00000  8.16%  50.2 1431s
 90275  6640   45.00000   48   17   49.00000   45.00000  8.16%  50.7 1469s
 90319  6676   45.00000   49   20   49.00000   45.00000  8.16%  50.8 1491s
 90473  6746   45.00000   54   17   49.00000   45.00000  8.16%  50.7 1515s
 91969  6903   45.00000   59   49   49.00000   45.00000  8.16%  50.8 1588s
 95163  7456 infeasible   66        49.00000   45.00000  8.16%  51.0 1730s
 102559  7471   45.00000   58   27   49.00000   45.00000  8.16%  52.1 1770s
 102743  7561 infeasible   59        49.00000   45.00000  8.16%  52.1 1819s
 103336  7613   45.00000   58   35   49.00000   45.00000  8.16%  52.2 1863s
 104024  7861   45.00000   69   20   49.00000   45.00000  8.16%  52.2 1926s
 107668  7876 infeasible   58        49.00000   45.00000  8.16%  52.4 1981s
 107727  7943   48.00000   59   48   49.00000   45.00000  8.16%  52.4 2010s
 107892  8153   45.00000   57   21   49.00000   45.00000  8.16%  52.4 2054s
 108077  8153 infeasible   55        49.00000   45.00000  8.16%  52.4 2055s
 109062  8262   45.00000   70   38   49.00000   45.00000  8.16%  52.5 2095s
 109664  8511   45.00000   71   37   49.00000   45.00000  8.16%  52.5 2166s
 112783  8632   45.00000   48   35   49.00000   45.00000  8.16%  52.4 2239s
 113892  9102   45.00000   49   73   49.00000   45.00000  8.16%  52.5 2357s
 119597  9133   47.00000   58   31   49.00000   45.00000  8.16%  52.6 2396s
 119768  9207 infeasible   59        49.00000   45.00000  8.16%  52.7 2464s
 120182  9327 infeasible   60        49.00000   45.00000  8.16%  52.7 2518s
 120855  9730   45.00000   60   33   49.00000   45.00000  8.16%  52.7 2618s
 126408  9784   45.00000   56   35   49.00000   45.00000  8.16%  52.6 2690s
 126775 10130   45.00000   56   37   49.00000   45.00000  8.16%  52.7 2783s
 131268 10140 infeasible   58        49.00000   45.00000  8.16%  52.9 2870s
 131294 10171 infeasible   57        49.00000   45.00000  8.16%  52.9 2919s
 131493 10441 infeasible   74        49.00000   45.00000  8.16%  52.9 2987s
 135477 10443 infeasible   68        49.00000   45.00000  8.16%  52.9 3092s
 135511 10789 infeasible   67        49.00000   45.00000  8.16%  52.9 3164s
 139121 10824   45.00000   57   26   49.00000   45.00000  8.16%  53.0 3254s
 139282 11923 infeasible   58        49.00000   45.00000  8.16%  53.0 3600s
 155755 11923 infeasible   68        49.00000   45.00000  8.16%  52.9 3605s

Cutting planes:
  Learned: 2967
  Gomory: 7
  Lift-and-project: 43
  Cover: 12
  Implied bound: 1
  MIR: 120
  StrongCG: 3
  Flow cover: 541
  Zero half: 5
  RLT: 89
  Relax-and-lift: 31

Explored 156756 nodes (8303363 simplex iterations) in 3606.52 seconds (559.38 work units)
Thread count was 18 (of 36 available processors)

Solution count 10: 49 50 50 ... 62

Time limit reached
Best objective 4.900000000000e+01, best bound 4.500000000000e+01, gap 8.1633%
